* (set-option :incremental false)
* (set-info :status sat)
* (set-info :category "unknown")
* (set-logic QF_BV)
* (declare-fun x781 () (_ BitVec 32))
* (declare-fun x803 () (_ BitVec 8))
* (declare-fun x804 () (_ BitVec 8))
* (declare-fun x791 () (_ BitVec 8))
* (check-sat-assuming ( (and (= x804 (bvxor (bvxor ((_ extract 7 0) (bvadd (_ bv1 32) x781)) x791) x803)) (= (bvnot ((_ extract 0 0) x804)) (_ bv0 1)) (= x781 (_ bv0 32))) ))
* sat
* #variable= 26 #constraint= 35
+1 x17 -1 x25 +1 x9 >= 0;
+1 x17 +1 x25 -1 x9 >= 0;
-1 x16 +1 x24 +1 x8 >= 0;
+1 x12 -1 x20 +1 x4 >= 0;
+1 x16 -1 x24 +1 x8 >= 0;
+1 x16 +1 x24 -1 x8 >= 0;
-1 x12 -1 x20 -1 x4 >= -2;
-1 x16 -1 x24 -1 x8 >= -2;
-1 x12 +1 x20 +1 x4 >= 0;
+1 x12 +1 x20 -1 x4 >= 0;
-1 x17 -1 x25 -1 x9 >= -2;
-1 x13 +1 x21 +1 x5 >= 0;
-1 x11 -1 x19 -1 x3 >= -2;
+1 x11 -1 x19 +1 x3 >= 0;
+1 x13 -1 x21 +1 x5 >= 0;
-1 x17 +1 x25 +1 x9 >= 0;
+1 x18 +1 x26 -1 x10 >= 0;
+1 x3 -1 x2 = 0;
+1 x1 = 0;
+1 x1 -1 x2 = 0;
+1 x11 +1 x19 -1 x3 >= 0;
+1 x13 +1 x21 -1 x5 >= 0;
-1 x13 -1 x21 -1 x5 >= -2;
+1 x18 -1 x26 +1 x10 >= 0;
-1 x18 -1 x26 -1 x10 >= -2;
-1 x14 +1 x22 +1 x6 >= 0;
+1 x14 +1 x22 -1 x6 >= 0;
-1 x18 +1 x26 +1 x10 >= 0;
+1 x14 -1 x22 +1 x6 >= 0;
-1 x14 -1 x22 -1 x6 >= -2;
+1 x15 +1 x23 -1 x7 >= 0;
+1 x15 -1 x23 +1 x7 >= 0;
-1 x15 +1 x23 +1 x7 >= 0;
-1 x11 +1 x19 +1 x3 >= 0;
-1 x15 -1 x23 -1 x7 >= -2;
